
--- Job basics.gms Start 10/24/25 19:14:41 51.2.0 56392656 WEX-WEI x86 64bit/MS Windows
--- Applying:
    C:\GAMS\51\gmsprmNT.txt
    C:\Users\vanqu\OneDrive\Documents\GAMS\gamsconfig.yaml
--- GAMS Parameters defined
    Input C:\Users\vanqu\OneDrive\Desktop\Thesis\honours-thesis\basics.gms
    PageSize 0
    ScrDir C:\Users\vanqu\OneDrive\Desktop\Thesis\honours-thesis\outputs\225a\
    SysDir C:\GAMS\51\
    LogOption 3
    AppendLog 1
    ErrMsg 1
    ErrorLog 99
    IDE 1
    LstTitleLeftAligned 1
Licensee: GAMS Demo, for EULA and demo limitations see   G250826+0003Cc-GEN
          https://www.gams.com/latest/docs/UG%5FLicense.html         DC0000
          C:\GAMS\51\gamslice.txt
          v:2                                                              
          Demo license for demonstration and instructional purposes only
System information: 14 physical cores and 16 Gb physical memory detected
GAMS 51.2.0   Copyright (C) 1987-2025 GAMS Development. All rights reserved
--- Starting compilation
--- basics.gms(318) 3 Mb
--- Starting execution: elapsed 0:00:00.009
--- basics.gms(196) 4 Mb
--- Generating MIP model plan
--- basics.gms(197) 4 Mb
---   82 rows  58 columns  214 non-zeroes
---   6 discrete-columns
--- Range statistics (absolute non-zero finite values)
--- RHS       [min, max] : [ 1.000E+01, 1.200E+02] - Zero values observed as well
--- Bound     [min, max] : [ 1.000E+00, 1.000E+00] - Zero values observed as well
--- Matrix    [min, max] : [ 1.000E+00, 1.000E+17]
--- Executing CPLEX (Solvelink=2): elapsed 0:00:00.012

IBM ILOG CPLEX   51.2.0 56392656 Sep 29, 2025          WEI x86 64bit/MS Window

*** This solver runs with a demo license. No commercial use.
--- GMO setup time: 0.00s
--- GMO memory 0.51 Mb (peak 0.51 Mb)
--- Dictionary memory 0.00 Mb
--- Cplex 22.1.2.0 link memory 0.00 Mb (peak 0.01 Mb)
--- Starting Cplex

Version identifier: 22.1.2.0 | 2024-11-25 | 0edbb82fd
CPXPARAM_Advance                                 0
CPXPARAM_MIP_Display                             4
CPXPARAM_MIP_Pool_Capacity                       0
CPXPARAM_MIP_Tolerances_AbsMIPGap                0
CPXPARAM_MIP_Tolerances_MIPGap                   0
Generic callback                                 0x50
Found incumbent of value 2.0000000e+19 after 0.00 sec. (0.00 ticks)
Tried aggregator 2 times.
MIP Presolve eliminated 54 rows and 28 columns.
Aggregator did 9 substitutions.
Reduced MIP has 18 rows, 21 columns, and 48 nonzeros.
Reduced MIP has 3 binaries, 0 generals, 0 SOSs, and 0 indicators.
Presolve time = 0.00 sec. (0.11 ticks)
Probing time = 0.00 sec. (0.01 ticks)
Tried aggregator 1 time.
Detecting symmetries...
Reduced MIP has 18 rows, 21 columns, and 48 nonzeros.
Reduced MIP has 3 binaries, 0 generals, 0 SOSs, and 0 indicators.
Presolve time = 0.00 sec. (0.03 ticks)
Probing time = 0.00 sec. (0.01 ticks)
MIP emphasis: balance optimality and feasibility.
MIP search method: dynamic search.
Parallel mode: deterministic, using up to 20 threads.
Parallel mode: deterministic, using up to 3 threads for parallel tasks at root LP.
Tried aggregator 1 time.
No LP presolve or aggregator reductions.
Presolve time = 0.00 sec. (0.01 ticks)

Iteration log . . .
Iteration:     1   Dual objective     =             0.000000
Root relaxation solution time = 0.00 sec. (0.04 ticks)

        Nodes                                         Cuts/
   Node  Left     Objective  IInf  Best Integer    Best Bound    ItCnt     Gap

*     0+    0                       2.00000e+19        0.0000           100.00%
Found incumbent of value 2.0000000e+19 after 0.00 sec. (0.22 ticks)
*     0+    0                       1.35000e+19        0.0000           100.00%
Found incumbent of value 1.3500000e+19 after 0.00 sec. (0.22 ticks)
      0     0  7281575.0000     3   1.35000e+19  7281575.0000       16  100.00%
*     0+    0                       3.00066e+07  7281575.0000            75.73%
Found incumbent of value 3.0006575e+07 after 0.00 sec. (0.23 ticks)
*     0+    0                       2.25047e+07  7281575.0000            67.64%
Found incumbent of value 2.2504700e+07 after 0.00 sec. (0.27 ticks)
      0     0   1.27565e+07     3   2.25047e+07      Cuts: 10       19   43.32%
*     0+    0                       2.10047e+07   1.27565e+07            39.27%
Found incumbent of value 2.1004700e+07 after 0.00 sec. (0.37 ticks)
*     0     0      integral     0   1.65047e+07       Cuts: 4       22    0.00%
Found incumbent of value 1.6504700e+07 after 0.00 sec. (0.44 ticks)
      0     0        cutoff         1.65047e+07   1.65047e+07       22    0.00%
Elapsed time = 0.03 sec. (0.44 ticks, tree = 0.01 MB)

Mixed integer rounding cuts applied:  5
Gomory fractional cuts applied:  1

Root node processing (before b&c):
  Real time             =    0.03 sec. (0.44 ticks)
Parallel b&c, 20 threads:
  Real time             =    0.00 sec. (0.00 ticks)
  Sync time (average)   =    0.00 sec.
  Wait time (average)   =    0.00 sec.
                          ------------
Total (root+branch&cut) =    0.03 sec. (0.44 ticks)

--- MIP status (101): integer optimal solution.
--- Cplex Time: 0.03sec (det. 0.44 ticks)

--- Returning a primal only solution to GAMS (marginals all set to NA).
--- Fixing integer variables and solving final LP...

Version identifier: 22.1.2.0 | 2024-11-25 | 0edbb82fd
CPXPARAM_Advance                                 2
CPXPARAM_MIP_Display                             4
CPXPARAM_MIP_Pool_Capacity                       0
CPXPARAM_MIP_Tolerances_AbsMIPGap                0
CPXPARAM_MIP_Tolerances_MIPGap                   0
Tried aggregator 1 time.
LP Presolve eliminated 73 rows and 50 columns.
Aggregator did 8 substitutions.
All rows and columns eliminated.
Presolve time = 0.00 sec. (0.04 ticks)

--- Fixed MIP status (1): optimal.
--- Cplex Time: 0.00sec (det. 0.07 ticks)


Proven optimal solution
MIP Solution:     16504700.000000    (22 iterations, 0 nodes)
Final Solve:      16504700.000000    (0 iterations)

Best possible:    16504700.000000
Absolute gap:            0.000000
Relative gap:            0.000000

--- Reading solution for model plan
--- Executing after solve: elapsed 0:00:00.086
--- basics.gms(313) 4 Mb
*** Status: Normal completion
--- Job basics.gms Stop 10/24/25 19:14:41 elapsed 0:00:00.086
